solution status: optimal solution found
objective value:                     206409.387558461
d11(0,0)                                            1 	(obj:0)
d11(1,1)                                            1 	(obj:0)
d11(2,3)                                            1 	(obj:0)
d11(2,5)                                            1 	(obj:0)
d11(3,7)                                            1 	(obj:0)
d11(3,9)                                            1 	(obj:0)
d11(3,11)                                           1 	(obj:0)
d11(3,13)                                           1 	(obj:0)
d11(4,15)                                           1 	(obj:0)
d11(4,16)                                           1 	(obj:0)
d11(4,17)                                           1 	(obj:0)
d11(4,18)                                           1 	(obj:0)
d11(4,19)                                           1 	(obj:0)
d11(4,21)                                           1 	(obj:0)
d11(4,23)                                           1 	(obj:0)
d11(4,25)                                           1 	(obj:0)
d11(4,27)                                           1 	(obj:0)
d11(4,28)                                           1 	(obj:0)
d11(4,29)                                           1 	(obj:0)
d11(4,30)                                           1 	(obj:0)
d11(5,31)                                           1 	(obj:0)
d11(5,32)                                           1 	(obj:0)
d11(5,33)                                           1 	(obj:0)
d11(5,34)                                           1 	(obj:0)
d11(5,35)                                           1 	(obj:0)
d11(5,36)                                           1 	(obj:0)
d11(5,37)                                           1 	(obj:0)
d11(5,38)                                           1 	(obj:0)
d11(5,39)                                           1 	(obj:0)
d11(5,40)                                           1 	(obj:0)
d11(5,41)                                           1 	(obj:0)
d11(5,42)                                           1 	(obj:0)
d11(5,43)                                           1 	(obj:0)
d11(5,44)                                           1 	(obj:0)
d11(5,45)                                           1 	(obj:0)
d11(5,46)                                           1 	(obj:0)
d11(5,47)                                           1 	(obj:0)
d11(5,48)                                           1 	(obj:0)
d11(5,49)                                           1 	(obj:0)
d11(5,50)                                           1 	(obj:0)
d11(5,51)                                           1 	(obj:0)
d11(5,52)                                           1 	(obj:0)
d11(5,53)                                           1 	(obj:0)
d11(5,55)                                           1 	(obj:0)
d11(5,56)                                           1 	(obj:0)
d11(5,57)                                           1 	(obj:0)
d11(5,59)                                           1 	(obj:0)
d11(5,60)                                           1 	(obj:0)
d11(5,61)                                           1 	(obj:0)
d11(6,63)                           0.999999999999985 	(obj:0)
d11(6,65)                           0.999999999999985 	(obj:0)
d11(6,67)                           0.999999999999985 	(obj:0)
d11(6,69)                           0.999999999999985 	(obj:0)
d11(6,73)                           0.999999999999985 	(obj:0)
d11(6,75)                           0.999999999999985 	(obj:0)
d11(6,79)                           0.999999999999985 	(obj:0)
d11(6,81)                                           1 	(obj:0)
d11(6,83)                           0.999999999999985 	(obj:0)
d11(6,85)                                           1 	(obj:0)
d11(6,87)                           0.999999999999985 	(obj:0)
d11(6,89)                           0.999999999999985 	(obj:0)
d11(6,91)                           0.999999999999985 	(obj:0)
d11(6,93)                           0.999999999999985 	(obj:0)
d11(6,95)                           0.999999999999985 	(obj:0)
d11(6,97)                                           1 	(obj:0)
d11(6,99)                           0.999999999999985 	(obj:0)
d11(6,101)                          0.999999999999985 	(obj:0)
d11(6,103)                                          1 	(obj:0)
d11(6,105)                                          1 	(obj:0)
d11(6,107)                                          1 	(obj:0)
d11(6,111)                          0.999999999999985 	(obj:0)
d11(6,113)                          0.999999999999985 	(obj:0)
d11(6,115)                                          1 	(obj:0)
d11(6,117)                          0.999999999999985 	(obj:0)
d11(6,119)                                          1 	(obj:0)
d11(6,121)                          0.999999999999985 	(obj:0)
d11(6,123)                          0.999999999999985 	(obj:0)
d11(6,125)                          0.999999999999985 	(obj:0)
d12(1,2)                                            1 	(obj:0)
d12(2,4)                                            1 	(obj:0)
d12(2,6)                                            1 	(obj:0)
d12(3,8)                                            1 	(obj:0)
d12(3,10)                                           1 	(obj:0)
d12(3,12)                                           1 	(obj:0)
d12(3,14)                                           1 	(obj:0)
d12(6,64)                                           1 	(obj:0)
d12(6,66)                                           1 	(obj:0)
d12(6,68)                                           1 	(obj:0)
d12(6,70)                                           1 	(obj:0)
d12(6,72)                                           1 	(obj:0)
d12(6,74)                                           1 	(obj:0)
d12(6,76)                                           1 	(obj:0)
d12(6,78)                                           1 	(obj:0)
d12(6,80)                                           1 	(obj:0)
d12(6,82)                                           1 	(obj:0)
d12(6,84)                                           1 	(obj:0)
d12(6,86)                                           1 	(obj:0)
d12(6,88)                                           1 	(obj:0)
d12(6,90)                                           1 	(obj:0)
d12(6,92)                                           1 	(obj:0)
d12(6,94)                                           1 	(obj:0)
d12(6,96)                                           1 	(obj:0)
d12(6,98)                                           1 	(obj:0)
d12(6,100)                                          1 	(obj:0)
d12(6,102)                                          1 	(obj:0)
d12(6,104)                                          1 	(obj:0)
d12(6,106)                                          1 	(obj:0)
d12(6,108)                                          1 	(obj:0)
d12(6,110)                                          1 	(obj:0)
d12(6,112)                                          1 	(obj:0)
d12(6,114)                                          1 	(obj:0)
d12(6,116)                                          1 	(obj:0)
d12(6,118)                                          1 	(obj:0)
d12(6,120)                                          1 	(obj:0)
d12(6,122)                                          1 	(obj:0)
d12(6,124)                                          1 	(obj:0)
d12(6,126)                                          1 	(obj:0)
d21(4,15)                                           1 	(obj:0)
d21(5,31)                                           1 	(obj:0)
d21(5,32)                                           1 	(obj:0)
d21(5,33)                                           1 	(obj:0)
d21(5,34)                                           1 	(obj:0)
d21(5,35)                                           1 	(obj:0)
d21(5,36)                                           1 	(obj:0)
d21(5,37)                                           1 	(obj:0)
d21(5,39)                                           1 	(obj:0)
d21(5,40)                                           1 	(obj:0)
d21(5,41)                                           1 	(obj:0)
d21(5,43)                                           1 	(obj:0)
d21(5,47)                                           1 	(obj:0)
d21(5,48)                                           1 	(obj:0)
d21(5,49)                                           1 	(obj:0)
d21(5,51)                                           1 	(obj:0)
d21(5,55)                                           1 	(obj:0)
d21(6,63)                                           1 	(obj:0)
d21(6,64)                                           1 	(obj:0)
d21(6,65)                                           1 	(obj:0)
d21(6,66)                                           1 	(obj:0)
d21(6,67)                                           1 	(obj:0)
d21(6,68)                                           1 	(obj:0)
d21(6,69)                                           1 	(obj:0)
d21(6,70)                                           1 	(obj:0)
d21(6,71)                                           1 	(obj:0)
d21(6,72)                                           1 	(obj:0)
d21(6,73)                                           1 	(obj:0)
d21(6,74)                                           1 	(obj:0)
d21(6,75)                                           1 	(obj:0)
d21(6,76)                                           1 	(obj:0)
d21(6,79)                                           1 	(obj:0)
d21(6,80)                                           1 	(obj:0)
d21(6,81)                                           1 	(obj:0)
d21(6,82)                                           1 	(obj:0)
d21(6,83)                                           1 	(obj:0)
d21(6,84)                                           1 	(obj:0)
d21(6,85)                                           1 	(obj:0)
d21(6,87)                                           1 	(obj:0)
d21(6,88)                                           1 	(obj:0)
d21(6,89)                                           1 	(obj:0)
d21(6,91)                                           1 	(obj:0)
d21(6,95)                                           1 	(obj:0)
d21(6,96)                                           1 	(obj:0)
d21(6,97)                                           1 	(obj:0)
d21(6,98)                                           1 	(obj:0)
d21(6,99)                                           1 	(obj:0)
d21(6,100)                                          1 	(obj:0)
d21(6,103)                                          1 	(obj:0)
d21(6,104)                                          1 	(obj:0)
d21(6,105)                                          1 	(obj:0)
d21(6,107)                                          1 	(obj:0)
d21(6,111)                                          1 	(obj:0)
d21(6,112)                                          1 	(obj:0)
d21(6,113)                                          1 	(obj:0)
d21(6,115)                                          1 	(obj:0)
d21(6,119)                                          1 	(obj:0)
y2(6,100)                            1385.48851144895 	(obj:0)
y2(6,102)                            1385.48851144895 	(obj:0)
y2(6,104)                            1385.48851144895 	(obj:0)
y2(6,106)                            1385.48851144895 	(obj:0)
y2(6,108)                            1385.48851144895 	(obj:0)
y2(6,110)                            1385.48851144895 	(obj:0)
y2(6,112)                            1385.48851144895 	(obj:0)
y2(6,114)                            1385.48851144895 	(obj:0)
y2(6,116)                            1385.48851144895 	(obj:0)
y2(6,118)                            1385.48851144895 	(obj:0)
y2(6,120)                            1385.48851144895 	(obj:0)
y2(6,122)                            1385.48851144895 	(obj:0)
y2(6,124)                            1385.48851144895 	(obj:0)
y2(6,126)                            1385.48851144895 	(obj:0)
STE(1,1)                             12194.5445984783 	(obj:0)
STE(0,0)                                        14175 	(obj:0)
STE(1,2)                             13603.9551515223 	(obj:0)
STE(2,3)                             11060.5445984783 	(obj:0)
STE(2,4)                             12376.7586843547 	(obj:0)
STE(2,5)                             12469.9551515223 	(obj:0)
STE(2,6)                             13786.1692373987 	(obj:0)
STE(3,7)                             9080.08919695599 	(obj:0)
STE(3,8)                             10489.4997500001 	(obj:0)
STE(3,9)                             10396.3032828325 	(obj:0)
STE(3,10)                            11805.7138358765 	(obj:0)
STE(3,11)                                 10489.49975 	(obj:0)
STE(3,12)                            11898.9103030441 	(obj:0)
STE(3,13)                            11805.7138358765 	(obj:0)
STE(3,14)                            13215.1243889205 	(obj:0)
STE(4,15)                            6287.83929806714 	(obj:0)
STE(4,16)                            7946.08919695599 	(obj:0)
STE(4,17)                            7697.24985111121 	(obj:0)
STE(4,18)                            9355.49975000003 	(obj:0)
STE(4,19)                            7604.05338394361 	(obj:0)
STE(4,20)                            9262.30328283245 	(obj:0)
STE(4,21)                            9013.46393698768 	(obj:0)
STE(4,22)                            10671.7138358765 	(obj:0)
STE(4,23)                            7697.24985111115 	(obj:0)
STE(4,24)                                  9355.49975 	(obj:0)
STE(4,25)                            9106.66040415523 	(obj:0)
STE(4,26)                            10764.9103030441 	(obj:0)
STE(4,27)                            9013.46393698762 	(obj:0)
STE(4,28)                            10671.7138358765 	(obj:0)
STE(4,29)                            10422.8744900317 	(obj:0)
STE(4,30)                            12081.1243889205 	(obj:0)
STE(5,31)                             3495.5893991783 	(obj:0)
STE(5,32)                            5153.83929806711 	(obj:0)
STE(5,33)                            5153.83929806714 	(obj:0)
STE(5,34)                            6812.08919695599 	(obj:0)
STE(5,35)                            4904.99995222237 	(obj:0)
STE(5,36)                            6563.24985111118 	(obj:0)
STE(5,37)                            6563.24985111118 	(obj:0)
STE(5,38)                                  8221.49975 	(obj:0)
STE(5,39)                            4811.80348505476 	(obj:0)
STE(5,40)                            6470.05338394361 	(obj:0)
STE(5,41)                            6470.05338394361 	(obj:0)
STE(5,42)                            8128.30328283239 	(obj:0)
STE(5,43)                            6221.21403809883 	(obj:0)
STE(5,44)                            7879.46393698765 	(obj:0)
STE(5,45)                            7879.46393698768 	(obj:0)
STE(5,46)                             9537.7138358765 	(obj:0)
STE(5,47)                            4904.99995222231 	(obj:0)
STE(5,48)                            6563.24985111115 	(obj:0)
STE(5,49)                            6563.24985111115 	(obj:0)
STE(5,50)                                  8221.49975 	(obj:0)
STE(5,51)                            6314.41050526639 	(obj:0)
STE(5,52)                            7972.66040415517 	(obj:0)
STE(5,53)                            7972.66040415523 	(obj:0)
STE(5,54)                            9630.91030304408 	(obj:0)
STE(5,55)                            6221.21403809878 	(obj:0)
STE(5,56)                            7879.46393698756 	(obj:0)
STE(5,57)                            7879.46393698769 	(obj:0)
STE(5,58)                            9537.71383587653 	(obj:0)
STE(5,59)                            7630.62459114285 	(obj:0)
STE(5,60)                             9288.8744900317 	(obj:0)
STE(5,61)                             9288.8744900317 	(obj:0)
STE(5,62)                            10947.1243889205 	(obj:0)
STE(6,63)                             2361.5893991783 	(obj:0)
STE(6,64)                             3677.8034850548 	(obj:0)
STE(6,65)                            4019.83929806711 	(obj:0)
STE(6,66)                            5336.05338394362 	(obj:0)
STE(6,67)                            4019.83929806714 	(obj:0)
STE(6,68)                            5336.05338394365 	(obj:0)
STE(6,69)                            5678.08919695599 	(obj:0)
STE(6,70)                            6994.30328283249 	(obj:0)
STE(6,71)                            3770.99995222237 	(obj:0)
STE(6,72)                            5087.21403809887 	(obj:0)
STE(6,73)                            5429.24985111118 	(obj:0)
STE(6,74)                            6745.46393698769 	(obj:0)
STE(6,75)                            5429.24985111118 	(obj:0)
STE(6,76)                            6745.46393698769 	(obj:0)
STE(6,77)                                  7087.49975 	(obj:0)
STE(6,78)                            8403.71383587651 	(obj:0)
STE(6,79)                            3677.80348505476 	(obj:0)
STE(6,80)                            4994.01757093127 	(obj:0)
STE(6,81)                            5336.05338394365 	(obj:0)
STE(6,82)                            6652.26746982011 	(obj:0)
STE(6,83)                            5336.05338394361 	(obj:0)
STE(6,84)                            6652.26746982011 	(obj:0)
STE(6,85)                            6994.30328283243 	(obj:0)
STE(6,86)                             8310.5173687089 	(obj:0)
STE(6,87)                            5087.21403809883 	(obj:0)
STE(6,88)                            6403.42812397534 	(obj:0)
STE(6,89)                            6745.46393698765 	(obj:0)
STE(6,90)                            8061.67802286416 	(obj:0)
STE(6,91)                            6745.46393698768 	(obj:0)
STE(6,92)                            8061.67802286419 	(obj:0)
STE(6,93)                             8403.7138358765 	(obj:0)
STE(6,94)                              9719.927921753 	(obj:0)
STE(6,95)                            3770.99995222231 	(obj:0)
STE(6,96)                            5087.21403809881 	(obj:0)
STE(6,97)                             5429.2498511112 	(obj:0)
STE(6,98)                            6745.46393698766 	(obj:0)
STE(6,99)                            5429.24985111115 	(obj:0)
STE(6,100)                           6745.46393698766 	(obj:0)
STE(6,101)                                 7087.49975 	(obj:0)
STE(6,102)                           8403.71383587651 	(obj:0)
STE(6,103)                           5180.41050526643 	(obj:0)
STE(6,104)                           6496.62459114289 	(obj:0)
STE(6,105)                           6838.66040415521 	(obj:0)
STE(6,106)                           8154.87449003168 	(obj:0)
STE(6,107)                           6838.66040415527 	(obj:0)
STE(6,108)                           8154.87449003174 	(obj:0)
STE(6,109)                           8496.91030304408 	(obj:0)
STE(6,110)                           9813.12438892058 	(obj:0)
STE(6,111)                           5087.21403809878 	(obj:0)
STE(6,112)                           6403.42812397528 	(obj:0)
STE(6,113)                           6745.46393698756 	(obj:0)
STE(6,114)                           8061.67802286407 	(obj:0)
STE(6,115)                           6745.46393698773 	(obj:0)
STE(6,116)                           8061.67802286419 	(obj:0)
STE(6,117)                           8403.71383587653 	(obj:0)
STE(6,118)                           9719.92792175304 	(obj:0)
STE(6,119)                           6496.62459114289 	(obj:0)
STE(6,120)                           7812.83867701936 	(obj:0)
STE(6,121)                            8154.8744900317 	(obj:0)
STE(6,122)                            9471.0885759082 	(obj:0)
STE(6,123)                            8154.8744900317 	(obj:0)
STE(6,124)                            9471.0885759082 	(obj:0)
STE(6,125)                           9813.12438892054 	(obj:0)
STE(6,126)                            11129.338474797 	(obj:0)
BG(5)                                723.522421037851 	(obj:10)
BG(6)                                2673.40993877551 	(obj:10)
AVE(1)                               3259.55177567504 	(obj:0)
WB(2)                                3259.55588804169 	(obj:0)
AVE(2)                               3259.55588804169 	(obj:0)
WB(3)                                128.594711918107 	(obj:0)
AVE(3)                               3579.36165209166 	(obj:0)
AVE(4)                               3579.36576445831 	(obj:0)
AVE(5)                               3472.77007794174 	(obj:0)
WB(6)                                 3046.3618950668 	(obj:0)
AVE(6)                                3046.3618950668 	(obj:0)
WG(1)                                3259.55177567504 	(obj:10)
WG(3)                                3450.76694017355 	(obj:10)
WG(4)                                3579.36576445831 	(obj:10)
WG(5)                                3472.77007794174 	(obj:10)
BG(1)                                191.215164498031 	(obj:10)
BG(2)                                2673.40993877555 	(obj:10)
BG(4)                                616.926734521282 	(obj:10)
y1(1,1)                              761.809861369571 	(obj:0)
y1(3,7)                              761.809861370044 	(obj:0)
y1(3,9)                              761.809861370044 	(obj:0)
y1(3,11)                             761.809861370043 	(obj:0)
y1(3,13)                             761.809861370044 	(obj:0)
y1(4,15)                             1492.42490899996 	(obj:0)
y1(4,17)                             1492.42490899996 	(obj:0)
y1(4,19)                             1492.42490899996 	(obj:0)
y1(4,21)                             1492.42490899996 	(obj:0)
y1(4,23)                             1492.42490899996 	(obj:0)
y1(4,25)                             1492.42490899996 	(obj:0)
y1(4,27)                             1492.42490899996 	(obj:0)
y1(4,29)                             1492.42490899996 	(obj:0)
y1(5,31)                             1492.42490899996 	(obj:0)
y1(5,33)                             1492.42490899996 	(obj:0)
y1(5,35)                             1492.42490899996 	(obj:0)
y1(5,37)                             1492.42490899996 	(obj:0)
y1(5,39)                             1492.42490899996 	(obj:0)
y1(5,41)                             1492.42490899996 	(obj:0)
y1(5,43)                             1492.42490899996 	(obj:0)
y1(5,45)                             1492.42490899996 	(obj:0)
y1(5,47)                             1492.42490899996 	(obj:0)
y1(5,49)                             1492.42490899996 	(obj:0)
y1(5,51)                             1492.42490899996 	(obj:0)
y1(5,53)                             1492.42490899996 	(obj:0)
y1(5,55)                             1492.42490899996 	(obj:0)
y1(5,57)                             1492.42490899996 	(obj:0)
y1(5,59)                             1492.42490899996 	(obj:0)
y1(5,61)                             1492.42490899996 	(obj:0)
y2(1,2)                              592.584370023443 	(obj:0)
y2(2,4)                              1385.48851144891 	(obj:0)
y2(2,6)                              1385.48851144891 	(obj:0)
y2(3,8)                               592.58437002295 	(obj:0)
y2(3,10)                              592.58437002295 	(obj:0)
y2(3,12)                              592.58437002295 	(obj:0)
y2(3,14)                              592.58437002295 	(obj:0)
y2(6,64)                             1385.48851144895 	(obj:0)
y2(6,66)                             1385.48851144895 	(obj:0)
y2(6,68)                             1385.48851144895 	(obj:0)
y2(6,70)                             1385.48851144895 	(obj:0)
y2(6,72)                             1385.48851144895 	(obj:0)
y2(6,74)                             1385.48851144895 	(obj:0)
y2(6,76)                             1385.48851144895 	(obj:0)
y2(6,78)                             1385.48851144895 	(obj:0)
y2(6,80)                             1385.48851144895 	(obj:0)
y2(6,82)                             1385.48851144895 	(obj:0)
y2(6,84)                             1385.48851144895 	(obj:0)
y2(6,86)                             1385.48851144895 	(obj:0)
y2(6,88)                             1385.48851144895 	(obj:0)
y2(6,90)                             1385.48851144895 	(obj:0)
y2(6,92)                             1385.48851144895 	(obj:0)
y2(6,94)                             1385.48851144895 	(obj:0)
y2(6,96)                             1385.48851144895 	(obj:0)
y2(6,98)                             1385.48851144895 	(obj:0)
